c Add3Optimal
c 6  : res0
c 15  : res1
c 24  : res2
c i 4  7  3  6  13  16  12  15  22  25  21  24  0
c 1  : FALSE
c 2  : aux_56
c 3  : a3_44
c 4  : a1_42
c 5  : aux_54
c 6  : sum_51
c 7  : a2_43
c 8  : aux_55
c 9  : cout1_53
c 10  : cout0_52
c 11  : aux_62
c 12  : a3_47
c 13  : a1_45
c 14  : aux_60
c 15  : sum_57
c 16  : a2_46
c 17  : aux_61
c 18  : cout1_59
c 19  : cout0_58
c 20  : aux_68
c 21  : a3_50
c 22  : a1_48
c 23  : aux_66
c 24  : sum_63
c 25  : a2_49
c 26  : aux_67
c 27  : cout1_65
c 28  : cout0_64
p cnf 28 126
-2  3  0
-2  4  0
-5  -6  0
-2  7  0
-2  8  0
3  7  -8  0
3  4  -8  0
-8  10  9  0
-4  -7  8  0
-3  -7  8  0
-2  6  9  0
2  -9  -10  0
2  -9  0
-3  -4  8  0
4  7  -8  0
-2  6  0
-3  6  8  0
2  -3  -4  -7  0
-4  6  8  0
-4  6  10  0
6  -7  10  0
6  -7  8  0
-3  6  10  0
8  -10  0
2  -6  -8  0
3  4  -6  7  0
-11  12  0
-11  13  0
-14  -15  0
-11  16  0
-11  17  0
10  -14  0
12  16  -17  0
12  13  -17  0
-17  18  19  0
-14  -17  18  0
-14  18  19  0
-13  -16  17  0
-12  -16  17  0
-11  15  18  0
11  -18  -19  0
-10  -11  18  0
11  -14  -17  0
11  -18  0
-12  -13  17  0
14  -18  0
14  -18  -19  0
-18  -19  0
13  16  -17  0
-10  14  15  0
-11  14  15  0
-10  -11  14  0
14  17  -18  0
-12  14  15  17  0
11  -12  -13  -16  0
-13  14  15  17  0
-13  15  18  19  0
-10  -12  14  17  0
-10  -12  18  19  0
15  -16  18  19  0
-10  -16  18  19  0
-10  -13  14  17  0
-10  -13  18  19  0
14  15  -16  17  0
-10  14  -16  17  0
-12  15  18  19  0
14  17  -19  0
10  11  -15  -17  0
12  13  -14  16  0
10  12  13  -15  16  0
-20  21  0
-20  22  0
-23  -24  0
-20  25  0
-20  26  0
19  -23  0
21  25  -26  0
21  22  -26  0
-18  -26  27  0
-26  27  28  0
-23  -26  27  0
-18  -23  27  0
-23  27  28  0
-18  27  28  0
-22  -25  26  0
-21  -25  26  0
-20  24  27  0
20  -27  -28  0
-19  -20  27  0
20  -23  -26  0
18  20  -27  0
-21  -22  26  0
18  23  -27  0
23  -27  -28  0
18  -27  -28  0
22  25  -26  0
-19  23  24  0
-20  23  24  0
-19  -20  23  0
23  26  -27  0
-21  23  24  26  0
20  -21  -22  -25  0
-18  -19  -21  27  0
-18  -19  -25  27  0
-18  -19  -22  27  0
-22  23  24  26  0
-22  24  27  28  0
-18  -22  24  27  0
-18  24  -25  27  0
-19  -21  23  26  0
-19  -21  27  28  0
24  -25  27  28  0
-19  -25  27  28  0
-19  -22  23  26  0
-19  -22  27  28  0
23  24  -25  26  0
-19  23  -25  26  0
-18  -21  24  27  0
-21  24  27  28  0
-18  -19  -20  28  0
18  23  26  -28  0
19  20  -24  -26  0
21  22  -23  25  0
-18  -20  24  28  0
-18  -23  -26  28  0
19  21  22  -24  25  0
